8594
51, 11, 52, 13, 14, 26, 47, 27, 28, 12, 33, 43, 10, 9, 8, 41, 45, 19, 18, 3, 17, 42, 7, 2, 30, 29, 16, 20, 50, 23, 21, 31, 22, 1, 49, 32, 35, 36, 39, 40, 15, 6, 5, 48, 24, 38, 37, 34, 44, 46, 25, 4
